214.79 0
0 11 167 105 180 198 155 170 195 65 30 0
0 13 97 92 191 86 16 60 90 132 116 139 58 112 0
0 2 137 42 15 43 140 119 37 173 84 199 36 126 146 69 101 70 122 136 35 129 121 80 165 25 110 56 74 41 57 0
0 22 39 55 54 138 177 24 169 71 148 194 38 144 0
0 5 141 87 152 183 147 103 174 0
0 1 158 193 106 182 47 175 159 10 31 0
0 12 154 114 14 117 178 171 23 197 0
0 4 95 59 91 85 93 118 94 0
0 6 100 26 111 9 188 189 107 190 27 166 0
0 17 45 46 143 123 48 82 18 83 96 172 44 61 113 0
0 68 149 75 133 151 156 176 108 78 79 0
0 19 153 127 115 186 187 109 50 33 34 135 161 131 0
0 32 160 120 81 102 196 134 53 0
0 7 124 49 64 63 20 51 185 29 150 40 73 142 192 98 104 99 52 88 0
0 3 157 164 128 168 162 28 21 179 163 184 76 77 0
0 8 125 89 145 72 67 130 66 181 62 0
